
Gurobi 12.0.2 (win64) logging started Sat Jun  7 11:43:50 2025

Set parameter LogFile to value "C:\Ioana\_uni\honours\slp\algorithm\Main_files\results\others\prox_tubules_new_1\Task_006_Sample005_irr_gurobi.log"
Gurobi Optimizer version 12.0.2 build v12.0.2rc0 (win64 - Windows 11.0 (26100.2))

CPU model: Intel(R) Core(TM) Ultra 5 125H, instruction set [SSE2|AVX|AVX2]
Thread count: 14 physical cores, 18 logical processors, using up to 18 threads

Non-default parameters:
TimeLimit  2200

Optimize a model with 47658 rows, 34797 columns and 147844 nonzeros
Model fingerprint: 0xaa46944b
Variable types: 17403 continuous, 17394 integer (17394 binary)
Coefficient statistics:
  Matrix range     [1e-04, 8e+04]
  Objective range  [5e-05, 3e+00]
  Bounds range     [1e+00, 1e+03]
  RHS range        [1e+00, 1e+00]
Presolve removed 31195 rows and 21824 columns
Presolve time: 0.31s
Presolved: 16463 rows, 12973 columns, 54716 nonzeros
Variable types: 6422 continuous, 6551 integer (6551 binary)

Root relaxation: objective 4.729359e-03, 5593 iterations, 0.62 seconds (1.16 work units)

    Nodes    |    Current Node    |     Objective Bounds      |     Work
 Expl Unexpl |  Obj  Depth IntInf | Incumbent    BestBd   Gap | It/Node Time

     0     0    0.00473    0   68          -    0.00473      -     -    1s
H    0     0                       9.9687261    0.00473   100%     -    1s
H    0     0                       2.3259579    0.00473   100%     -    1s
     0     0    0.05780    0   71    2.32596    0.05780  97.5%     -    1s
     0     0    0.07877    0   43    2.32596    0.07877  96.6%     -    1s
     0     0    0.08402    0   74    2.32596    0.08402  96.4%     -    2s
     0     0    0.08587    0   79    2.32596    0.08587  96.3%     -    2s
H    0     0                       1.5016903    0.08587  94.3%     -    2s
H    0     0                       1.4945577    0.87719  41.3%     -    2s
H    0     0                       1.4818693    0.87719  40.8%     -    2s
     0     0    0.87719    0   41    1.48187    0.87719  40.8%     -    2s
     0     0    0.87719    0   41    1.48187    0.87719  40.8%     -    2s
     0     0    0.87719    0   49    1.48187    0.87719  40.8%     -    2s
     0     0    0.87719    0   52    1.48187    0.87719  40.8%     -    3s
     0     0    0.87719    0   53    1.48187    0.87719  40.8%     -    3s
     0     0    0.87719    0   57    1.48187    0.87719  40.8%     -    3s
     0     0    0.87719    0   57    1.48187    0.87719  40.8%     -    3s
     0     0    0.87719    0   41    1.48187    0.87719  40.8%     -    4s
     0     0    0.87719    0   52    1.48187    0.87719  40.8%     -    4s
     0     0    1.11432    0   52    1.48187    1.11432  24.8%     -    4s
     0     0    1.16877    0   57    1.48187    1.16877  21.1%     -    4s
     0     0    1.21380    0   58    1.48187    1.21380  18.1%     -    4s
     0     0    1.21380    0   56    1.48187    1.21380  18.1%     -    4s
     0     0    1.21384    0   48    1.48187    1.21384  18.1%     -    4s
     0     0    1.30651    0   55    1.48187    1.30651  11.8%     -    4s
     0     0    1.30651    0   55    1.48187    1.30651  11.8%     -    5s
     0     0    1.30651    0   47    1.48187    1.30651  11.8%     -    5s
     0     0    1.30651    0   46    1.48187    1.30651  11.8%     -    5s
     0     0    1.35715    0   50    1.48187    1.35715  8.42%     -    5s
     0     0    1.35715    0   47    1.48187    1.35715  8.42%     -    5s
     0     0    1.36094    0   57    1.48187    1.36094  8.16%     -    5s
     0     0    1.36094    0   40    1.48187    1.36094  8.16%     -    5s
     0     0    1.36094    0   39    1.48187    1.36094  8.16%     -    5s
     0     0    1.41214    0   21    1.48187    1.41214  4.71%     -    5s
     0     0    1.43307    0   18    1.48187    1.43307  3.29%     -    5s
     0     0    1.43307    0   18    1.48187    1.43307  3.29%     -    5s
     0     0    1.44794    0   22    1.48187    1.44794  2.29%     -    5s
     0     0    1.44794    0   21    1.48187    1.44794  2.29%     -    5s
     0     0    1.45158    0   13    1.48187    1.45158  2.04%     -    5s
     0     0    1.45617    0   12    1.48187    1.45617  1.73%     -    5s
     0     0    1.45638    0   10    1.48187    1.45638  1.72%     -    5s
     0     0    1.46954    0   12    1.48187    1.46954  0.83%     -    5s
     0     0    1.46954    0   12    1.48187    1.46954  0.83%     -    5s
     0     0    1.46954    0    9    1.48187    1.46954  0.83%     -    5s
     0     0    1.47056    0    5    1.48187    1.47056  0.76%     -    5s
     0     0    1.47057    0   12    1.48187    1.47057  0.76%     -    5s
     0     0    1.47494    0    9    1.48187    1.47494  0.47%     -    5s
     0     0    1.47499    0    4    1.48187    1.47499  0.46%     -    5s
     0     0    1.47517    0   15    1.48187    1.47517  0.45%     -    5s
     0     0    1.47524    0   14    1.48187    1.47524  0.45%     -    5s
     0     0    1.47553    0   19    1.48187    1.47553  0.43%     -    5s
     0     0    1.47560    0   19    1.48187    1.47560  0.42%     -    5s
     0     0    1.47560    0   12    1.48187    1.47560  0.42%     -    5s
     0     0    1.47560    0   16    1.48187    1.47560  0.42%     -    5s
     0     0    1.47560    0   18    1.48187    1.47560  0.42%     -    5s
     0     0    1.47560    0   19    1.48187    1.47560  0.42%     -    5s
     0     0    1.47655    0   23    1.48187    1.47655  0.36%     -    5s
     0     0    1.47680    0   13    1.48187    1.47680  0.34%     -    5s
     0     0    1.47856    0   16    1.48187    1.47856  0.22%     -    5s
     0     0    1.47856    0   10    1.48187    1.47856  0.22%     -    5s
     0     0    1.47856    0    8    1.48187    1.47856  0.22%     -    5s
     0     0    1.47856    0    8    1.48187    1.47856  0.22%     -    5s
     0     0    1.47924    0    6    1.48187    1.47924  0.18%     -    5s
     0     0    1.47924    0    5    1.48187    1.47924  0.18%     -    5s
     0     0    1.47933    0    5    1.48187    1.47933  0.17%     -    5s
     0     0    1.47948    0    8    1.48187    1.47948  0.16%     -    5s
     0     0    1.47948    0    5    1.48187    1.47948  0.16%     -    5s
     0     0    1.47988    0    5    1.48187    1.47988  0.13%     -    5s
     0     0    1.48187    0    9    1.48187    1.48187  0.00%     -    5s

Cutting planes:
  Learned: 1
  Gomory: 5
  Cover: 1
  MIR: 6
  Flow cover: 15
  Zero half: 1
  Network: 1

Explored 1 nodes (13833 simplex iterations) in 5.51 seconds (5.49 work units)
Thread count was 18 (of 18 available processors)

Solution count 6: 1.48187 1.48691 1.49456 ... 9.96873

Optimal solution found (tolerance 1.00e-04)
Best objective 1.481869266247e+00, best bound 1.481869266247e+00, gap 0.0000%
